c This file was generated by the dp program
c
p cnf 100 241
-80 -85 -99 0
-78 -85 95 0
78 87 -94 0
-69 85 99 0
-68 -76 80 96 0
-68 76 80 0
-68 74 -77 -84 0
-68 -70 -74 0
-68 -70 74 0
66 74 -83 0
65 76 -87 0
-64 -75 86 96 0
-64 75 84 86 0
-63 91 -93 0
63 -86 -98 0
-59 -71 89 0
-59 63 -83 0
-58 -76 -99 0
58 -76 97 0
58 -59 -61 79 97 0
-57 71 81 0
57 60 73 -100 0
-56 -77 -82 -84 -92 0
-56 72 -91 0
-56 68 77 -82 -92 0
56 -81 -82 -92 0
-55 -82 -90 0
55 -73 -95 0
55 -73 -95 100 0
-54 70 -77 -84 0
-54 70 77 0
54 61 -62 0
-53 -69 -71 0
-52 83 -87 0
-52 73 -89 0
-52 73 -74 0
-52 -66 89 0
52 57 60 100 0
52 55 100 0
52 55 -95 100 0
52 55 73 -95 -100 0
-51 -53 -58 69 0
-50 61 -62 0
50 53 -62 0
-48 -77 -84 -93 0
-48 68 77 -93 0
-48 50 98 0
-47 -56 -77 -81 -84 0
-47 -56 68 77 -81 0
-47 56 -81 0
-47 -53 -58 -100 0
47 -56 68 -77 -84 0
47 -56 68 77 0
47 56 68 -81 0
-46 -48 58 -59 79 98 0
45 -51 69 0
-44 -61 97 99 0
-44 -61 79 97 0
-44 -58 -86 99 0
-44 -58 79 -86 0
-44 -46 -48 98 99 0
-44 -46 -48 79 98 0
43 -45 -96 0
-42 64 83 0
-42 50 -64 98 0
-42 -46 58 -59 -64 79 0
-42 -44 -46 -64 99 0
-42 -44 -46 -64 79 0
42 71 -72 0
-41 71 76 -92 0
41 59 -65 0
-40 -55 90 0
-40 49 -76 -79 80 -81 96 0
-40 49 76 -79 80 -81 0
-40 47 49 -60 -81 0
40 -55 90 0
40 -53 -58 69 0
40 45 -51 -53 -58 0
-39 -61 67 -89 0
-39 41 88 0
39 -45 92 0
39 44 59 -86 0
39 44 46 -86 0
-38 83 87 0
-38 67 -81 -82 -92 0
-38 -47 67 -81 0
-38 47 67 68 -81 0
38 66 83 0
38 -46 93 0
-37 40 -91 0
37 -49 62 0
37 -41 76 -97 0
-36 64 -85 0
-36 57 -75 96 0
-36 57 75 84 0
36 86 -96 0
36 -67 91 0
36 -60 63 0
36 -51 69 75 0
36 -47 75 -100 0
36 40 69 75 0
36 40 -53 -58 69 75 0
36 40 45 -51 75 0
-35 54 70 0
-34 -86 92 0
34 -45 -69 0
-33 60 -98 0
33 -51 58 -59 69 0
33 -47 58 -59 -100 0
33 -44 -51 69 79 0
33 -44 -47 79 -100 0
33 40 58 -59 69 0
33 40 45 -51 58 -59 0
33 40 -44 69 79 0
33 40 -44 -53 -58 69 79 0
33 40 -44 45 -51 79 0
33 36 40 58 -59 69 75 0
33 36 40 -44 69 75 79 0
-32 -50 98 0
-32 44 59 -66 0
-32 44 46 -66 0
32 -41 63 76 0
32 -33 -34 0
-31 42 -72 0
-31 42 72 0
31 46 71 -92 0
31 42 81 0
31 41 46 -56 -77 -84 0
31 41 46 -56 68 77 0
31 41 46 56 -81 0
31 -38 41 46 67 -81 0
31 37 46 -97 0
31 32 46 63 0
-30 -78 85 0
-30 -39 -41 0
-30 35 78 0
30 95 0
30 51 -89 95 0
-29 33 88 0
29 -35 -65 0
-28 -76 -88 96 0
-28 -68 76 80 -88 0
-28 -67 -93 0
-28 43 -98 0
-28 -40 49 76 -79 -81 -88 0
28 -43 -88 0
28 -39 43 0
-27 56 93 0
-27 -39 -63 -89 0
27 -80 -97 0
27 -43 97 0
-26 53 -79 0
-26 -49 -76 -79 80 96 0
-26 -49 76 -79 80 0
-26 47 -49 -60 0
-26 34 -57 0
-26 -28 -49 76 -79 -88 0
26 -61 62 67 0
26 -40 -49 -76 -79 80 96 0
26 -40 -49 76 -79 80 0
26 -40 47 -49 -60 0
26 -37 94 0
26 -28 -40 -49 76 -79 -88 0
26 -27 62 -63 0
-25 82 -90 0
-25 49 -81 -94 0
-25 26 -49 -94 0
25 87 92 0
25 56 -77 -81 -84 0
25 56 -68 -70 -81 0
25 -38 67 -77 -84 0
25 -38 67 -68 -70 0
25 35 82 0
-24 -37 -100 0
-24 37 -73 0
24 45 48 0
-23 -29 84 0
-23 29 65 0
23 -75 -96 0
23 51 -62 0
23 -35 -75 96 0
23 -35 75 84 0
-22 -61 79 97 0
-22 -58 79 -86 0
-22 -58 -61 79 -86 97 0
-22 -48 93 0
-22 48 81 0
-22 -46 -48 79 98 0
-22 -46 -48 -61 79 97 98 0
-22 -46 -48 -58 79 -86 98 0
-22 -42 -46 -64 79 0
-22 -42 -46 -61 -64 79 97 0
-22 -42 -46 -58 -64 79 -86 0
-22 33 -51 -61 69 97 0
-22 33 -51 -58 69 -86 0
-22 33 -47 -61 97 -100 0
-22 33 -47 -58 -86 -100 0
-22 33 -46 -48 -51 69 98 0
-22 33 -46 -47 -48 98 -100 0
-22 33 -42 -46 -51 -64 69 0
-22 33 -42 -46 -47 -64 -100 0
-22 33 40 -61 69 97 0
-22 33 40 -58 69 -86 0
-22 33 40 -53 -58 69 -86 0
-22 33 40 -53 -58 -61 69 97 0
-22 33 40 -46 -48 69 98 0
-22 33 40 -46 -48 -53 -58 69 98 0
-22 33 40 45 -51 -61 97 0
-22 33 40 45 -51 -58 -86 0
-22 33 40 45 -46 -48 -51 98 0
-22 33 40 -42 -46 -64 69 0
-22 33 40 -42 -46 -53 -58 -64 69 0
-22 33 40 -42 45 -46 -51 -64 0
-22 33 36 40 -61 69 75 97 0
-22 33 36 40 -58 69 75 -86 0
-22 33 36 40 -46 -48 69 75 98 0
-22 33 36 40 -42 -46 -64 69 75 0
22 68 81 0
22 -39 -51 69 -89 0
22 -39 -47 -89 -100 0
22 -39 40 69 -89 0
22 -39 40 -53 -58 69 -89 0
22 -39 40 45 -51 -89 0
22 36 -39 40 69 75 -89 0
22 33 -39 40 58 -59 69 -89 0
22 33 -39 40 -44 69 79 -89 0
22 26 -51 62 69 0
22 26 -47 62 -100 0
22 26 40 62 69 0
22 26 40 -53 -58 62 69 0
22 26 40 45 -51 62 0
22 26 -39 40 62 69 -89 0
22 26 36 40 62 69 75 0
22 26 33 40 58 -59 62 69 0
22 26 33 40 -44 62 69 79 0
-21 49 -71 0
-21 -36 75 0
-21 -34 64 0
21 51 -89 94 0
21 30 94 95 0
21 24 -48 0
